# chain on a wall - Langevin thermostat

# units, simulation style, boundaries
units		lj
atom_style	bond
boundary        p p f

# read in file
read_data       brush_N20.data

# set pair potential
pair_style      lj/cut 2.5
pair_coeff      * * 1.0   1.0 1.12246
pair_coeff      1 4 200.0 1.0 2.5
pair_coeff      4 4 0.00 0.00 0.000

# set bonding potential
bond_style      fene
bond_coeff      1 30 1.5 1.0 1.0
special_bonds   fene

# change timestep [LJ units]
timestep        0.002

# define groups
group           chain type 1 2 3
group           wall type 4
group           end type 3

# time integration + thermostat
fix		1 chain nve
fix             2 chain langevin  1.2 1.2 0.5 1337

## dump a movie if you want
#dump           1 all xyz 1000 film.xyz

dump            2 all dcd 1000 film.dcd
dump_modify     2 unwrap yes

dump            3 all custom 1000 film.traj id type xu yu zu

# thermodynamic output, Nr. of time steps
thermo          1000
run             300000 # equilibration tme
reset_timestep  0 

# measure brush profiles
fix             4 chain ave/histo 1000 200 200000 0 30 50 z file rho.txt mode vector ave running
fix             5 end ave/histo 1000 200 200000 0 30 50 z file ends.txt mode vector ave running

run             200000 # measurement time
write_data      brush_eq.data
